NAME: circle36
TYPE: TSP
COMMENT: 36 points on a circle (Dimo Brockhoff)
DIMENSION: 36
EDGE_WEIGHT_TYPE: EUC_2D
NODE_COORD_SECTION
1 100.0 0.0
2 117.4 1.5
3 134.2 6.0
4 150.0 13.4
5 164.2 23.4
6 176.6 35.7
7 186.7 50.0
8 194.0 65.8
9 198.5 82.6
10 200.0 100.0
11 198.5 117.4
12 194.0 134.2
13 186.7 150.0
14 176.6 164.3
15 164.2 176.6
16 150.0 186.7
17 134.2 194.0
18 117.4 198.5
19 100.0 200.0
20 82.6 198.5
21 65.8 194.0
22 50.0 186.7
23 35.7 176.6
24 23.4 164.2
25 13.4 150.0
26 6.0 134.2
27 1.5 117.4
28 0.0 100.0
29 1.5 82.6
30 6.0 65.8
31 13.4 50.0
32 23.4 35.7
33 35.7 23.4
34 50.0 13.4
35 65.8 6.0
36 82.6 1.5
EOF

